c 49_3_checker.cnf
c
c field = 49
c formula set type = 3_checker
c
p cnf 4 54
90 
92 
94 
-98 
91 
93 
95 
-99 
92 
94 
98 
-90 
93 
95 
99 
-91 
92 
94 
98 
-100 
93 
95 
99 
-101 
94 
98 
100 
-92 
95 
99 
101 
-93 
94 
98 
100 
-102 
95 
99 
101 
-103 
98 
100 
102 
-94 
99 
101 
103 
-95 
98 
100 
102 
-104 
99 
101 
103 
-105 
6 
36 
66 
-126 
7 
37 
67 
-127 
36 
66 
126 
-6 
37 
67 
127 
-7 
36 
66 
126 
-156 
37 
67 
127 
-157 
66 
126 
156 
-36 
67 
127 
157 
-37 
66 
126 
156 
-186 
67 
127 
157 
-187 
126 
156 
186 
-66 
127 
157 
187 
-67 
126 
156 
186 
-216 
127 
157 
187 
-217 
0 
32 
64 
-128 
1 
33 
65 
-129 
32 
64 
128 
-0 
33 
65 
129 
-1 
32 
64 
128 
-160 
33 
65 
129 
-161 
64 
128 
160 
-32 
65 
129 
161 
-33 
64 
128 
160 
-192 
65 
129 
161 
-193 
128 
160 
192 
-64 
129 
161 
193 
-65 
128 
160 
192 
-224 
129 
161 
193 
-225 
12 
40 
68 
-124 
13 
41 
69 
-125 
40 
68 
124 
-12 
41 
69 
125 
-13 
40 
68 
124 
-152 
41 
69 
125 
-153 
68 
124 
152 
-40 
69 
125 
153 
-41 
68 
124 
152 
-180 
69 
125 
153 
-181 
124 
152 
180 
-68 
125 
153 
181 
-69 
